
Gurobi 11.0.0 (win64, C++) logging started Mon Jul 28 19:31:35 2025

Set parameter TokenServer to value "141.76.38.119"
### START HEURISTIC APPROACH APPROACH ###
ProblemVariant: 1
### START PREPROCESSING ###
## Start start solution procedure ##
Start solution with 7 Vehicles and total costs 2794.05 in 19.9461 s.
### END PREPROCESSING ###
Route 0 0-12-0 : weight util 0.051158 | volume util 0.302111 | infeasible with packing heuristic | feasible with CP model
Route 1 0-29-22-8-9-0 : weight util 0.151605 | volume util 0.536044 | infeasible with packing heuristic | feasible with CP model
Route 2 0-7-30-2-28-27-18-26-0 : weight util 0.911605 | volume util 0.588533 | infeasible with packing heuristic | feasible with CP model
Route 3 0-5-23-19-25-21-11-10-0 : weight util 0.817579 | volume util 0.684133 | infeasible with packing heuristic | feasible with CP model
Route 4 0-6-31-4-0 : weight util 0.285816 | volume util 0.497333 | infeasible with packing heuristic | feasible with CP model
Route 5 0-15-14-24-3-20-0 : weight util 0.223974 | volume util 0.606444 | infeasible with packing heuristic | feasible with CP model
Route 6 0-32-1-17-13-16-0 : weight util 0.152079 | volume util 0.544178 | infeasible with packing heuristic | feasible with CP model
